(set-logic QF_LRA)
(declare-fun T1 () Real )
(declare-fun T2 () Real )
(declare-fun T3 () Real )
(declare-fun T4 () Real )
(declare-fun T5 () Real )
(declare-fun T6 () Real )
(declare-fun T7 () Real )
(declare-fun T8 () Real )
(declare-fun Z () Real )
(assert ( and 
(or ( <= ( + T1 2 ) T2 ) ( <= ( + T2 5 ) T1 ) )
(or ( <= ( + T1 75 )  ( + T2 5 ) ) ( <= ( + T2 25 )( + T1 2 ) ) )
(or ( <= ( + T1 102 )  ( + T2 25 ) ) ( <= ( + T2 70 )( + T1 75 ) ) )
(or ( <= ( + T1 158 )  ( + T2 70 ) ) ( <= ( + T2 100 )( + T1 102 ) ) )
(or ( <= ( + T1 216 )  ( + T2 100 ) ) ( <= ( + T2 180 )( + T1 158 ) ) )
(or ( <= ( + T1 249 )  ( + T2 180 ) ) ( <= ( + T2 184 )( + T1 216 ) ) )
(or ( <= ( + T1 2 ) T3 ) ( <= ( + T3 5 ) T1 ) )
(or ( <= ( + T1 75 )  ( + T3 5 ) ) ( <= ( + T3 9 )( + T1 2 ) ) )
(or ( <= ( + T1 102 )  ( + T3 9 ) ) ( <= ( + T3 26 )( + T1 75 ) ) )
(or ( <= ( + T1 158 )  ( + T3 26 ) ) ( <= ( + T3 118 )( + T1 102 ) ) )
(or ( <= ( + T1 216 )  ( + T3 118 ) ) ( <= ( + T3 210 )( + T1 158 ) ) )
(or ( <= ( + T1 249 )  ( + T3 210 ) ) ( <= ( + T3 244 )( + T1 216 ) ) )
(or ( <= ( + T1 2 ) T4 ) ( <= ( + T4 47 ) T1 ) )
(or ( <= ( + T1 75 )  ( + T4 47 ) ) ( <= ( + T4 75 )( + T1 2 ) ) )
(or ( <= ( + T1 102 )  ( + T4 75 ) ) ( <= ( + T4 118 )( + T1 75 ) ) )
(or ( <= ( + T1 158 )  ( + T4 118 ) ) ( <= ( + T4 208 )( + T1 102 ) ) )
(or ( <= ( + T1 216 )  ( + T4 208 ) ) ( <= ( + T4 301 )( + T1 158 ) ) )
(or ( <= ( + T1 249 )  ( + T4 301 ) ) ( <= ( + T4 304 )( + T1 216 ) ) )
(or ( <= ( + T1 2 ) T5 ) ( <= ( + T5 35 ) T1 ) )
(or ( <= ( + T1 75 )  ( + T5 35 ) ) ( <= ( + T5 72 )( + T1 2 ) ) )
(or ( <= ( + T1 102 )  ( + T5 72 ) ) ( <= ( + T5 145 )( + T1 75 ) ) )
(or ( <= ( + T1 158 )  ( + T5 145 ) ) ( <= ( + T5 203 )( + T1 102 ) ) )
(or ( <= ( + T1 216 )  ( + T5 203 ) ) ( <= ( + T5 225 )( + T1 158 ) ) )
(or ( <= ( + T1 249 )  ( + T5 225 ) ) ( <= ( + T5 228 )( + T1 216 ) ) )
(or ( <= ( + T1 2 ) T6 ) ( <= ( + T6 15 ) T1 ) )
(or ( <= ( + T1 75 )  ( + T6 15 ) ) ( <= ( + T6 38 )( + T1 2 ) ) )
(or ( <= ( + T1 102 )  ( + T6 38 ) ) ( <= ( + T6 66 )( + T1 75 ) ) )
(or ( <= ( + T1 158 )  ( + T6 66 ) ) ( <= ( + T6 159 )( + T1 102 ) ) )
(or ( <= ( + T1 216 )  ( + T6 159 ) ) ( <= ( + T6 189 )( + T1 158 ) ) )
(or ( <= ( + T1 249 )  ( + T6 189 ) ) ( <= ( + T6 274 )( + T1 216 ) ) )
(or ( <= ( + T1 2 ) T7 ) ( <= ( + T7 78 ) T1 ) )
(or ( <= ( + T1 75 )  ( + T7 78 ) ) ( <= ( + T7 164 )( + T1 2 ) ) )
(or ( <= ( + T1 102 )  ( + T7 164 ) ) ( <= ( + T7 168 )( + T1 75 ) ) )
(or ( <= ( + T1 158 )  ( + T7 168 ) ) ( <= ( + T7 242 )( + T1 102 ) ) )
(or ( <= ( + T1 216 )  ( + T7 242 ) ) ( <= ( + T7 309 )( + T1 158 ) ) )
(or ( <= ( + T1 249 )  ( + T7 309 ) ) ( <= ( + T7 392 )( + T1 216 ) ) )
(or ( <= ( + T1 2 ) T8 ) ( <= ( + T8 77 ) T1 ) )
(or ( <= ( + T1 75 )  ( + T8 77 ) ) ( <= ( + T8 148 )( + T1 2 ) ) )
(or ( <= ( + T1 102 )  ( + T8 148 ) ) ( <= ( + T8 186 )( + T1 75 ) ) )
(or ( <= ( + T1 158 )  ( + T8 186 ) ) ( <= ( + T8 232 )( + T1 102 ) ) )
(or ( <= ( + T1 216 )  ( + T8 232 ) ) ( <= ( + T8 247 )( + T1 158 ) ) )
(or ( <= ( + T1 249 )  ( + T8 247 ) ) ( <= ( + T8 328 )( + T1 216 ) ) )
(or ( <= ( + T2 5 ) T3 ) ( <= ( + T3 5 ) T2 ) )
(or ( <= ( + T2 25 )  ( + T3 5 ) ) ( <= ( + T3 9 )( + T2 5 ) ) )
(or ( <= ( + T2 70 )  ( + T3 9 ) ) ( <= ( + T3 26 )( + T2 25 ) ) )
(or ( <= ( + T2 100 )  ( + T3 26 ) ) ( <= ( + T3 118 )( + T2 70 ) ) )
(or ( <= ( + T2 180 )  ( + T3 118 ) ) ( <= ( + T3 210 )( + T2 100 ) ) )
(or ( <= ( + T2 184 )  ( + T3 210 ) ) ( <= ( + T3 244 )( + T2 180 ) ) )
(or ( <= ( + T2 5 ) T4 ) ( <= ( + T4 47 ) T2 ) )
(or ( <= ( + T2 25 )  ( + T4 47 ) ) ( <= ( + T4 75 )( + T2 5 ) ) )
(or ( <= ( + T2 70 )  ( + T4 75 ) ) ( <= ( + T4 118 )( + T2 25 ) ) )
(or ( <= ( + T2 100 )  ( + T4 118 ) ) ( <= ( + T4 208 )( + T2 70 ) ) )
(or ( <= ( + T2 180 )  ( + T4 208 ) ) ( <= ( + T4 301 )( + T2 100 ) ) )
(or ( <= ( + T2 184 )  ( + T4 301 ) ) ( <= ( + T4 304 )( + T2 180 ) ) )
(or ( <= ( + T2 5 ) T5 ) ( <= ( + T5 35 ) T2 ) )
(or ( <= ( + T2 25 )  ( + T5 35 ) ) ( <= ( + T5 72 )( + T2 5 ) ) )
(or ( <= ( + T2 70 )  ( + T5 72 ) ) ( <= ( + T5 145 )( + T2 25 ) ) )
(or ( <= ( + T2 100 )  ( + T5 145 ) ) ( <= ( + T5 203 )( + T2 70 ) ) )
(or ( <= ( + T2 180 )  ( + T5 203 ) ) ( <= ( + T5 225 )( + T2 100 ) ) )
(or ( <= ( + T2 184 )  ( + T5 225 ) ) ( <= ( + T5 228 )( + T2 180 ) ) )
(or ( <= ( + T2 5 ) T6 ) ( <= ( + T6 15 ) T2 ) )
(or ( <= ( + T2 25 )  ( + T6 15 ) ) ( <= ( + T6 38 )( + T2 5 ) ) )
(or ( <= ( + T2 70 )  ( + T6 38 ) ) ( <= ( + T6 66 )( + T2 25 ) ) )
(or ( <= ( + T2 100 )  ( + T6 66 ) ) ( <= ( + T6 159 )( + T2 70 ) ) )
(or ( <= ( + T2 180 )  ( + T6 159 ) ) ( <= ( + T6 189 )( + T2 100 ) ) )
(or ( <= ( + T2 184 )  ( + T6 189 ) ) ( <= ( + T6 274 )( + T2 180 ) ) )
(or ( <= ( + T2 5 ) T7 ) ( <= ( + T7 78 ) T2 ) )
(or ( <= ( + T2 25 )  ( + T7 78 ) ) ( <= ( + T7 164 )( + T2 5 ) ) )
(or ( <= ( + T2 70 )  ( + T7 164 ) ) ( <= ( + T7 168 )( + T2 25 ) ) )
(or ( <= ( + T2 100 )  ( + T7 168 ) ) ( <= ( + T7 242 )( + T2 70 ) ) )
(or ( <= ( + T2 180 )  ( + T7 242 ) ) ( <= ( + T7 309 )( + T2 100 ) ) )
(or ( <= ( + T2 184 )  ( + T7 309 ) ) ( <= ( + T7 392 )( + T2 180 ) ) )
(or ( <= ( + T2 5 ) T8 ) ( <= ( + T8 77 ) T2 ) )
(or ( <= ( + T2 25 )  ( + T8 77 ) ) ( <= ( + T8 148 )( + T2 5 ) ) )
(or ( <= ( + T2 70 )  ( + T8 148 ) ) ( <= ( + T8 186 )( + T2 25 ) ) )
(or ( <= ( + T2 100 )  ( + T8 186 ) ) ( <= ( + T8 232 )( + T2 70 ) ) )
(or ( <= ( + T2 180 )  ( + T8 232 ) ) ( <= ( + T8 247 )( + T2 100 ) ) )
(or ( <= ( + T2 184 )  ( + T8 247 ) ) ( <= ( + T8 328 )( + T2 180 ) ) )
(or ( <= ( + T3 5 ) T4 ) ( <= ( + T4 47 ) T3 ) )
(or ( <= ( + T3 9 )  ( + T4 47 ) ) ( <= ( + T4 75 )( + T3 5 ) ) )
(or ( <= ( + T3 26 )  ( + T4 75 ) ) ( <= ( + T4 118 )( + T3 9 ) ) )
(or ( <= ( + T3 118 )  ( + T4 118 ) ) ( <= ( + T4 208 )( + T3 26 ) ) )
(or ( <= ( + T3 210 )  ( + T4 208 ) ) ( <= ( + T4 301 )( + T3 118 ) ) )
(or ( <= ( + T3 244 )  ( + T4 301 ) ) ( <= ( + T4 304 )( + T3 210 ) ) )
(or ( <= ( + T3 5 ) T5 ) ( <= ( + T5 35 ) T3 ) )
(or ( <= ( + T3 9 )  ( + T5 35 ) ) ( <= ( + T5 72 )( + T3 5 ) ) )
(or ( <= ( + T3 26 )  ( + T5 72 ) ) ( <= ( + T5 145 )( + T3 9 ) ) )
(or ( <= ( + T3 118 )  ( + T5 145 ) ) ( <= ( + T5 203 )( + T3 26 ) ) )
(or ( <= ( + T3 210 )  ( + T5 203 ) ) ( <= ( + T5 225 )( + T3 118 ) ) )
(or ( <= ( + T3 244 )  ( + T5 225 ) ) ( <= ( + T5 228 )( + T3 210 ) ) )
(or ( <= ( + T3 5 ) T6 ) ( <= ( + T6 15 ) T3 ) )
(or ( <= ( + T3 9 )  ( + T6 15 ) ) ( <= ( + T6 38 )( + T3 5 ) ) )
(or ( <= ( + T3 26 )  ( + T6 38 ) ) ( <= ( + T6 66 )( + T3 9 ) ) )
(or ( <= ( + T3 118 )  ( + T6 66 ) ) ( <= ( + T6 159 )( + T3 26 ) ) )
(or ( <= ( + T3 210 )  ( + T6 159 ) ) ( <= ( + T6 189 )( + T3 118 ) ) )
(or ( <= ( + T3 244 )  ( + T6 189 ) ) ( <= ( + T6 274 )( + T3 210 ) ) )
(or ( <= ( + T3 5 ) T7 ) ( <= ( + T7 78 ) T3 ) )
(or ( <= ( + T3 9 )  ( + T7 78 ) ) ( <= ( + T7 164 )( + T3 5 ) ) )
(or ( <= ( + T3 26 )  ( + T7 164 ) ) ( <= ( + T7 168 )( + T3 9 ) ) )
(or ( <= ( + T3 118 )  ( + T7 168 ) ) ( <= ( + T7 242 )( + T3 26 ) ) )
(or ( <= ( + T3 210 )  ( + T7 242 ) ) ( <= ( + T7 309 )( + T3 118 ) ) )
(or ( <= ( + T3 244 )  ( + T7 309 ) ) ( <= ( + T7 392 )( + T3 210 ) ) )
(or ( <= ( + T3 5 ) T8 ) ( <= ( + T8 77 ) T3 ) )
(or ( <= ( + T3 9 )  ( + T8 77 ) ) ( <= ( + T8 148 )( + T3 5 ) ) )
(or ( <= ( + T3 26 )  ( + T8 148 ) ) ( <= ( + T8 186 )( + T3 9 ) ) )
(or ( <= ( + T3 118 )  ( + T8 186 ) ) ( <= ( + T8 232 )( + T3 26 ) ) )
(or ( <= ( + T3 210 )  ( + T8 232 ) ) ( <= ( + T8 247 )( + T3 118 ) ) )
(or ( <= ( + T3 244 )  ( + T8 247 ) ) ( <= ( + T8 328 )( + T3 210 ) ) )
(or ( <= ( + T4 47 ) T5 ) ( <= ( + T5 35 ) T4 ) )
(or ( <= ( + T4 75 )  ( + T5 35 ) ) ( <= ( + T5 72 )( + T4 47 ) ) )
(or ( <= ( + T4 118 )  ( + T5 72 ) ) ( <= ( + T5 145 )( + T4 75 ) ) )
(or ( <= ( + T4 208 )  ( + T5 145 ) ) ( <= ( + T5 203 )( + T4 118 ) ) )
(or ( <= ( + T4 301 )  ( + T5 203 ) ) ( <= ( + T5 225 )( + T4 208 ) ) )
(or ( <= ( + T4 304 )  ( + T5 225 ) ) ( <= ( + T5 228 )( + T4 301 ) ) )
(or ( <= ( + T4 47 ) T6 ) ( <= ( + T6 15 ) T4 ) )
(or ( <= ( + T4 75 )  ( + T6 15 ) ) ( <= ( + T6 38 )( + T4 47 ) ) )
(or ( <= ( + T4 118 )  ( + T6 38 ) ) ( <= ( + T6 66 )( + T4 75 ) ) )
(or ( <= ( + T4 208 )  ( + T6 66 ) ) ( <= ( + T6 159 )( + T4 118 ) ) )
(or ( <= ( + T4 301 )  ( + T6 159 ) ) ( <= ( + T6 189 )( + T4 208 ) ) )
(or ( <= ( + T4 304 )  ( + T6 189 ) ) ( <= ( + T6 274 )( + T4 301 ) ) )
(or ( <= ( + T4 47 ) T7 ) ( <= ( + T7 78 ) T4 ) )
(or ( <= ( + T4 75 )  ( + T7 78 ) ) ( <= ( + T7 164 )( + T4 47 ) ) )
(or ( <= ( + T4 118 )  ( + T7 164 ) ) ( <= ( + T7 168 )( + T4 75 ) ) )
(or ( <= ( + T4 208 )  ( + T7 168 ) ) ( <= ( + T7 242 )( + T4 118 ) ) )
(or ( <= ( + T4 301 )  ( + T7 242 ) ) ( <= ( + T7 309 )( + T4 208 ) ) )
(or ( <= ( + T4 304 )  ( + T7 309 ) ) ( <= ( + T7 392 )( + T4 301 ) ) )
(or ( <= ( + T4 47 ) T8 ) ( <= ( + T8 77 ) T4 ) )
(or ( <= ( + T4 75 )  ( + T8 77 ) ) ( <= ( + T8 148 )( + T4 47 ) ) )
(or ( <= ( + T4 118 )  ( + T8 148 ) ) ( <= ( + T8 186 )( + T4 75 ) ) )
(or ( <= ( + T4 208 )  ( + T8 186 ) ) ( <= ( + T8 232 )( + T4 118 ) ) )
(or ( <= ( + T4 301 )  ( + T8 232 ) ) ( <= ( + T8 247 )( + T4 208 ) ) )
(or ( <= ( + T4 304 )  ( + T8 247 ) ) ( <= ( + T8 328 )( + T4 301 ) ) )
(or ( <= ( + T5 35 ) T6 ) ( <= ( + T6 15 ) T5 ) )
(or ( <= ( + T5 72 )  ( + T6 15 ) ) ( <= ( + T6 38 )( + T5 35 ) ) )
(or ( <= ( + T5 145 )  ( + T6 38 ) ) ( <= ( + T6 66 )( + T5 72 ) ) )
(or ( <= ( + T5 203 )  ( + T6 66 ) ) ( <= ( + T6 159 )( + T5 145 ) ) )
(or ( <= ( + T5 225 )  ( + T6 159 ) ) ( <= ( + T6 189 )( + T5 203 ) ) )
(or ( <= ( + T5 228 )  ( + T6 189 ) ) ( <= ( + T6 274 )( + T5 225 ) ) )
(or ( <= ( + T5 35 ) T7 ) ( <= ( + T7 78 ) T5 ) )
(or ( <= ( + T5 72 )  ( + T7 78 ) ) ( <= ( + T7 164 )( + T5 35 ) ) )
(or ( <= ( + T5 145 )  ( + T7 164 ) ) ( <= ( + T7 168 )( + T5 72 ) ) )
(or ( <= ( + T5 203 )  ( + T7 168 ) ) ( <= ( + T7 242 )( + T5 145 ) ) )
(or ( <= ( + T5 225 )  ( + T7 242 ) ) ( <= ( + T7 309 )( + T5 203 ) ) )
(or ( <= ( + T5 228 )  ( + T7 309 ) ) ( <= ( + T7 392 )( + T5 225 ) ) )
(or ( <= ( + T5 35 ) T8 ) ( <= ( + T8 77 ) T5 ) )
(or ( <= ( + T5 72 )  ( + T8 77 ) ) ( <= ( + T8 148 )( + T5 35 ) ) )
(or ( <= ( + T5 145 )  ( + T8 148 ) ) ( <= ( + T8 186 )( + T5 72 ) ) )
(or ( <= ( + T5 203 )  ( + T8 186 ) ) ( <= ( + T8 232 )( + T5 145 ) ) )
(or ( <= ( + T5 225 )  ( + T8 232 ) ) ( <= ( + T8 247 )( + T5 203 ) ) )
(or ( <= ( + T5 228 )  ( + T8 247 ) ) ( <= ( + T8 328 )( + T5 225 ) ) )
(or ( <= ( + T6 15 ) T7 ) ( <= ( + T7 78 ) T6 ) )
(or ( <= ( + T6 38 )  ( + T7 78 ) ) ( <= ( + T7 164 )( + T6 15 ) ) )
(or ( <= ( + T6 66 )  ( + T7 164 ) ) ( <= ( + T7 168 )( + T6 38 ) ) )
(or ( <= ( + T6 159 )  ( + T7 168 ) ) ( <= ( + T7 242 )( + T6 66 ) ) )
(or ( <= ( + T6 189 )  ( + T7 242 ) ) ( <= ( + T7 309 )( + T6 159 ) ) )
(or ( <= ( + T6 274 )  ( + T7 309 ) ) ( <= ( + T7 392 )( + T6 189 ) ) )
(or ( <= ( + T6 15 ) T8 ) ( <= ( + T8 77 ) T6 ) )
(or ( <= ( + T6 38 )  ( + T8 77 ) ) ( <= ( + T8 148 )( + T6 15 ) ) )
(or ( <= ( + T6 66 )  ( + T8 148 ) ) ( <= ( + T8 186 )( + T6 38 ) ) )
(or ( <= ( + T6 159 )  ( + T8 186 ) ) ( <= ( + T8 232 )( + T6 66 ) ) )
(or ( <= ( + T6 189 )  ( + T8 232 ) ) ( <= ( + T8 247 )( + T6 159 ) ) )
(or ( <= ( + T6 274 )  ( + T8 247 ) ) ( <= ( + T8 328 )( + T6 189 ) ) )
(or ( <= ( + T7 78 ) T8 ) ( <= ( + T8 77 ) T7 ) )
(or ( <= ( + T7 164 )  ( + T8 77 ) ) ( <= ( + T8 148 )( + T7 78 ) ) )
(or ( <= ( + T7 168 )  ( + T8 148 ) ) ( <= ( + T8 186 )( + T7 164 ) ) )
(or ( <= ( + T7 242 )  ( + T8 186 ) ) ( <= ( + T8 232 )( + T7 168 ) ) )
(or ( <= ( + T7 309 )  ( + T8 232 ) ) ( <= ( + T8 247 )( + T7 242 ) ) )
(or ( <= ( + T7 392 )  ( + T8 247 ) ) ( <= ( + T8 328 )( + T7 309 ) ) )
( <= ( + T1 249 ) Z)
( <= ( + T2 184 ) Z)
( <= ( + T3 244 ) Z)
( <= ( + T4 304 ) Z)
( <= ( + T5 228 ) Z)
( <= ( + T6 274 ) Z)
( <= ( + T7 392 ) Z)
( <= ( + T8 328 ) Z)
( >= T1 0 )
( >= T2 0 )
( >= T3 0 )
( >= T4 0 )
( >= T5 0 )
( >= T6 0 )
( >= T7 0 )
( >= T8 0 )
) )
(minimize Z)
(check-sat)